(declare-const c_0 Real)
(declare-const c_1 Real)
(declare-const c_2 Real)
(declare-const c_3 Real)
(declare-const c_4 Real)
(declare-const c_5 Real)
(declare-const c_6 Real)
(declare-const c_7 Real)
(declare-const c_8 Real)
(declare-const c_9 Real)
(declare-const c_10 Real)
(declare-const c_11 Real)
(declare-const c_12 Real)
(declare-const c_13 Real)
(declare-const c_14 Real)
(declare-const c_15 Real)
(declare-const c_16 Real)
(declare-const c_17 Real)
(declare-const s_0 Real)
(declare-const s_1 Real)
(declare-const s_2 Real)
(declare-const s_3 Real)
(declare-const s_4 Real)
(declare-const s_5 Real)
(declare-const s_6 Real)
(declare-const s_7 Real)
(declare-const s_8 Real)
(declare-const s_9 Real)
(declare-const s_10 Real)
(declare-const s_11 Real)
(declare-const s_12 Real)
(declare-const s_13 Real)
(declare-const s_14 Real)
(declare-const s_15 Real)
(declare-const s_16 Real)
(declare-const s_17 Real)
(assert (forall ((y1 Real) (y2 Real) ) (=> (and (>= (+ (* 1024 1) (* 1 y1 ) ) 0) (>= (+ (* 1023 1) (* (- 1) y1 ) ) 0) (>= (+ (* 1024 1) (* 1 y2 ) ) 0) (>= (+ (* 1023 1) (* (- 1) y2 ) ) 0) ) (>= (+ (* 1 s_0 ) (* 1 s_1 y1 ) (* 1 s_2 y1 y2 ) (* 1 s_3 y1 y1 ) (* 1 s_4 y2 ) (* 1 s_5 y2 y2 ) ) 0) )))
(assert (forall ((y1 Real) (y2 Real) ) (=> (and (>= (+ (* 1024 1) (* 1 y1 ) ) 0) (>= (+ (* 1023 1) (* (- 1) y1 ) ) 0) (>= (+ (* 1024 1) (* 1 y2 ) ) 0) (>= (+ (* 1023 1) (* (- 1) y2 ) ) 0) ) (>= (+ (* 1 c_0 ) (* 1 c_1 y1 ) (* 1 c_2 y1 y2 ) (* 1 c_3 y1 y1 ) (* 1 c_4 y2 ) (* 1 c_5 y2 y2 ) ) 0) )))
(assert (forall ((y1 Real) (y2 Real) ) (=> (and (>= (* 1 y1 ) 0) (>= (* 1 y2 ) 0) (>= (+ (* 1024 1) (* 1 y1 ) ) 0) (>= (+ (* 1024 1) (* 1 y2 ) ) 0) (>= (+ (* 1023 1) (* (- 1) y2 ) ) 0) (>= (+ (* 1023 1) (* (- 1) y1 ) ) 0) (>= (+ (* 1 s_0 ) (* 1 s_1 y1 ) (* 1 s_2 y1 y2 ) (* 1 s_3 y1 y1 ) (* 1 s_4 y2 ) (* 1 s_5 y2 y2 ) ) 0) ) (>= (+ (* 1 s_10 y2 ) (* 1 s_11 y2 y2 ) (* 1 s_6 ) (* 1 s_7 y1 ) (* 1 s_8 y1 y2 ) (* 1 s_9 y1 y1 ) ) 0) )))
(assert (forall ((y1 Real) (y2 Real) ) (=> (and (>= (* 1 y1 ) 0) (>= (* 1 y2 ) 0) (>= (+ (* 1024 1) (* 1 y1 ) ) 0) (>= (+ (* 1024 1) (* 1 y2 ) ) 0) (>= (+ (* 1023 1) (* (- 1) y2 ) ) 0) (>= (+ (* 1023 1) (* (- 1) y1 ) ) 0) (>= (+ (* 1 s_0 ) (* 1 s_1 y1 ) (* 1 s_2 y1 y2 ) (* 1 s_3 y1 y1 ) (* 1 s_4 y2 ) (* 1 s_5 y2 y2 ) ) 0) ) (>= (+ (* 1 c_10 y2 ) (* 1 c_11 y2 y2 ) (* 1 c_6 ) (* 1 c_7 y1 ) (* 1 c_8 y1 y2 ) (* 1 c_9 y1 y1 ) ) 0) )))
(assert (forall ((y1 Real) (y2 Real) ) (=> (and (>= (* 1 y1 ) 0) (>= (* 1 y2 ) 0) (>= (+ (* 1024 1) (* 1 y1 ) ) 0) (>= (+ (* 1024 1) (* 1 y2 ) ) 0) (>= (+ (* 1023 1) (* (- 1) y2 ) ) 0) (>= (+ (* 1023 1) (* (- 1) y1 ) ) 0) (>= (+ (* 1 s_0 ) (* 1 s_1 y1 ) (* 1 s_2 y1 y2 ) (* 1 s_3 y1 y1 ) (* 1 s_4 y2 ) (* 1 s_5 y2 y2 ) ) 0) ) (>= (+ (* (- 1) 1) (* 1 c_0 ) (* 1 c_1 y1 ) (* (- 1) c_10 y2 ) (* (- 1) c_11 y2 y2 ) (* 1 c_2 y1 y2 ) (* 1 c_3 y1 y1 ) (* 1 c_4 y2 ) (* 1 c_5 y2 y2 ) (* (- 1) c_6 ) (* (- 1) c_7 y1 ) (* (- 1) c_8 y1 y2 ) (* (- 1) c_9 y1 y1 ) ) 0) )))
(assert (forall ((y1 Real) (y2 Real) ) (=> (and (>= (+ (* (- 1) 1) (* (- 1) y1 ) ) 0) (>= (+ (* 1024 1) (* 1 y1 ) ) 0) (>= (+ (* 1024 1) (* 1 y2 ) ) 0) (>= (+ (* 1023 1) (* (- 1) y2 ) ) 0) (>= (+ (* 1023 1) (* (- 1) y1 ) ) 0) (>= (+ (* 1 s_0 ) (* 1 s_1 y1 ) (* 1 s_2 y1 y2 ) (* 1 s_3 y1 y1 ) (* 1 s_4 y2 ) (* 1 s_5 y2 y2 ) ) 0) ) (>= (+ (* 1 s_12 ) (* 1 s_13 y1 ) (* 1 s_14 y1 y2 ) (* 1 s_15 y1 y1 ) (* 1 s_16 y2 ) (* 1 s_17 y2 y2 ) ) 0) )))
(assert (forall ((y1 Real) (y2 Real) ) (=> (and (>= (+ (* (- 1) 1) (* (- 1) y1 ) ) 0) (>= (+ (* 1024 1) (* 1 y1 ) ) 0) (>= (+ (* 1024 1) (* 1 y2 ) ) 0) (>= (+ (* 1023 1) (* (- 1) y2 ) ) 0) (>= (+ (* 1023 1) (* (- 1) y1 ) ) 0) (>= (+ (* 1 s_0 ) (* 1 s_1 y1 ) (* 1 s_2 y1 y2 ) (* 1 s_3 y1 y1 ) (* 1 s_4 y2 ) (* 1 s_5 y2 y2 ) ) 0) ) (>= (+ (* 1 c_12 ) (* 1 c_13 y1 ) (* 1 c_14 y1 y2 ) (* 1 c_15 y1 y1 ) (* 1 c_16 y2 ) (* 1 c_17 y2 y2 ) ) 0) )))
(assert (forall ((y1 Real) (y2 Real) ) (=> (and (>= (+ (* (- 1) 1) (* (- 1) y2 ) ) 0) (>= (+ (* 1024 1) (* 1 y1 ) ) 0) (>= (+ (* 1024 1) (* 1 y2 ) ) 0) (>= (+ (* 1023 1) (* (- 1) y2 ) ) 0) (>= (+ (* 1023 1) (* (- 1) y1 ) ) 0) (>= (+ (* 1 s_0 ) (* 1 s_1 y1 ) (* 1 s_2 y1 y2 ) (* 1 s_3 y1 y1 ) (* 1 s_4 y2 ) (* 1 s_5 y2 y2 ) ) 0) ) (>= (+ (* 1 s_12 ) (* 1 s_13 y1 ) (* 1 s_14 y1 y2 ) (* 1 s_15 y1 y1 ) (* 1 s_16 y2 ) (* 1 s_17 y2 y2 ) ) 0) )))
(assert (forall ((y1 Real) (y2 Real) ) (=> (and (>= (+ (* (- 1) 1) (* (- 1) y2 ) ) 0) (>= (+ (* 1024 1) (* 1 y1 ) ) 0) (>= (+ (* 1024 1) (* 1 y2 ) ) 0) (>= (+ (* 1023 1) (* (- 1) y2 ) ) 0) (>= (+ (* 1023 1) (* (- 1) y1 ) ) 0) (>= (+ (* 1 s_0 ) (* 1 s_1 y1 ) (* 1 s_2 y1 y2 ) (* 1 s_3 y1 y1 ) (* 1 s_4 y2 ) (* 1 s_5 y2 y2 ) ) 0) ) (>= (+ (* 1 c_12 ) (* 1 c_13 y1 ) (* 1 c_14 y1 y2 ) (* 1 c_15 y1 y1 ) (* 1 c_16 y2 ) (* 1 c_17 y2 y2 ) ) 0) )))
(assert (forall ((y1 Real) (y2 Real) ) (=> (and (>= (+ (* (- 1) 1) (* 1 y1 ) (* (- 1) y2 ) ) 0) (>= (+ (* (- 1) 1) (* (- 1) y1 ) (* 1 y2 ) ) 0) (>= (* 1 y1 ) 0) (>= (* 1 y2 ) 0) (>= (+ (* 1023 1) (* (- 1) y2 ) ) 0) (>= (+ (* 1023 1) (* (- 1) y1 ) ) 0) (>= (+ (* 1 s_10 y2 ) (* 1 s_11 y2 y2 ) (* 1 s_6 ) (* 1 s_7 y1 ) (* 1 s_8 y1 y2 ) (* 1 s_9 y1 y1 ) ) 0) ) (>= (+ (* 1 s_10 y2 ) (* 1 s_11 y2 y2 ) (* 1 s_6 ) (* 1 s_7 y1 ) (* (- 1) s_7 y2 ) (* 1 s_8 y1 y2 ) (* (- 1) s_8 y2 y2 ) (* (- 2) s_9 y1 y2 ) (* 1 s_9 y1 y1 ) (* 1 s_9 y2 y2 ) ) 0) )))
(assert (forall ((y1 Real) (y2 Real) ) (=> (and (>= (+ (* (- 1) 1) (* 1 y1 ) (* (- 1) y2 ) ) 0) (>= (+ (* (- 1) 1) (* (- 1) y1 ) (* 1 y2 ) ) 0) (>= (* 1 y1 ) 0) (>= (* 1 y2 ) 0) (>= (+ (* 1023 1) (* (- 1) y2 ) ) 0) (>= (+ (* 1023 1) (* (- 1) y1 ) ) 0) (>= (+ (* 1 s_10 y2 ) (* 1 s_11 y2 y2 ) (* 1 s_6 ) (* 1 s_7 y1 ) (* 1 s_8 y1 y2 ) (* 1 s_9 y1 y1 ) ) 0) ) (>= (+ (* 1 c_10 y2 ) (* 1 c_11 y2 y2 ) (* 1 c_6 ) (* 1 c_7 y1 ) (* (- 1) c_7 y2 ) (* 1 c_8 y1 y2 ) (* (- 1) c_8 y2 y2 ) (* (- 2) c_9 y1 y2 ) (* 1 c_9 y1 y1 ) (* 1 c_9 y2 y2 ) ) 0) )))
(assert (forall ((y1 Real) (y2 Real) ) (=> (and (>= (+ (* (- 1) 1) (* 1 y1 ) (* (- 1) y2 ) ) 0) (>= (+ (* (- 1) 1) (* (- 1) y1 ) (* 1 y2 ) ) 0) (>= (* 1 y1 ) 0) (>= (* 1 y2 ) 0) (>= (+ (* 1023 1) (* (- 1) y2 ) ) 0) (>= (+ (* 1023 1) (* (- 1) y1 ) ) 0) (>= (+ (* 1 s_10 y2 ) (* 1 s_11 y2 y2 ) (* 1 s_6 ) (* 1 s_7 y1 ) (* 1 s_8 y1 y2 ) (* 1 s_9 y1 y1 ) ) 0) ) (>= (+ (* (- 1) 1) (* 1 c_7 y2 ) (* 1 c_8 y2 y2 ) (* 2 c_9 y1 y2 ) (* (- 1) c_9 y2 y2 ) ) 0) )))
(assert (forall ((y1 Real) (y2 Real) ) (=> (and (>= (+ (* (- 1) y1 ) (* 1 y2 ) ) 0) (>= (+ (* (- 1) 1) (* (- 1) y1 ) (* 1 y2 ) ) 0) (>= (* 1 y1 ) 0) (>= (* 1 y2 ) 0) (>= (+ (* 1023 1) (* (- 1) y2 ) ) 0) (>= (+ (* 1023 1) (* (- 1) y1 ) ) 0) (>= (+ (* 1 s_10 y2 ) (* 1 s_11 y2 y2 ) (* 1 s_6 ) (* 1 s_7 y1 ) (* 1 s_8 y1 y2 ) (* 1 s_9 y1 y1 ) ) 0) ) (>= (+ (* (- 1) s_10 y1 ) (* 1 s_10 y2 ) (* (- 2) s_11 y1 y2 ) (* 1 s_11 y1 y1 ) (* 1 s_11 y2 y2 ) (* 1 s_6 ) (* 1 s_7 y1 ) (* 1 s_8 y1 y2 ) (* (- 1) s_8 y1 y1 ) (* 1 s_9 y1 y1 ) ) 0) )))
(assert (forall ((y1 Real) (y2 Real) ) (=> (and (>= (+ (* (- 1) y1 ) (* 1 y2 ) ) 0) (>= (+ (* (- 1) 1) (* (- 1) y1 ) (* 1 y2 ) ) 0) (>= (* 1 y1 ) 0) (>= (* 1 y2 ) 0) (>= (+ (* 1023 1) (* (- 1) y2 ) ) 0) (>= (+ (* 1023 1) (* (- 1) y1 ) ) 0) (>= (+ (* 1 s_10 y2 ) (* 1 s_11 y2 y2 ) (* 1 s_6 ) (* 1 s_7 y1 ) (* 1 s_8 y1 y2 ) (* 1 s_9 y1 y1 ) ) 0) ) (>= (+ (* (- 1) c_10 y1 ) (* 1 c_10 y2 ) (* (- 2) c_11 y1 y2 ) (* 1 c_11 y1 y1 ) (* 1 c_11 y2 y2 ) (* 1 c_6 ) (* 1 c_7 y1 ) (* 1 c_8 y1 y2 ) (* (- 1) c_8 y1 y1 ) (* 1 c_9 y1 y1 ) ) 0) )))
(assert (forall ((y1 Real) (y2 Real) ) (=> (and (>= (+ (* (- 1) y1 ) (* 1 y2 ) ) 0) (>= (+ (* (- 1) 1) (* (- 1) y1 ) (* 1 y2 ) ) 0) (>= (* 1 y1 ) 0) (>= (* 1 y2 ) 0) (>= (+ (* 1023 1) (* (- 1) y2 ) ) 0) (>= (+ (* 1023 1) (* (- 1) y1 ) ) 0) (>= (+ (* 1 s_10 y2 ) (* 1 s_11 y2 y2 ) (* 1 s_6 ) (* 1 s_7 y1 ) (* 1 s_8 y1 y2 ) (* 1 s_9 y1 y1 ) ) 0) ) (>= (+ (* (- 1) 1) (* 1 c_10 y1 ) (* 2 c_11 y1 y2 ) (* (- 1) c_11 y1 y1 ) (* 1 c_8 y1 y1 ) ) 0) )))
(assert (forall ((y1 Real) (y2 Real) ) (=> (and (>= (+ (* (- 1) 1) (* 1 y1 ) (* (- 1) y2 ) ) 0) (>= (* 1 y1 ) 0) (>= (* 1 y2 ) 0) (>= (+ (* 1023 1) (* (- 1) y2 ) ) 0) (>= (+ (* 1023 1) (* (- 1) y1 ) ) 0) (>= (+ (* 1 s_10 y2 ) (* 1 s_11 y2 y2 ) (* 1 s_6 ) (* 1 s_7 y1 ) (* 1 s_8 y1 y2 ) (* 1 s_9 y1 y1 ) ) 0) ) (>= (+ (* 1 s_10 y2 ) (* 1 s_11 y2 y2 ) (* 1 s_6 ) (* 1 s_7 y1 ) (* (- 1) s_7 y2 ) (* 1 s_8 y1 y2 ) (* (- 1) s_8 y2 y2 ) (* (- 2) s_9 y1 y2 ) (* 1 s_9 y1 y1 ) (* 1 s_9 y2 y2 ) ) 0) )))
(assert (forall ((y1 Real) (y2 Real) ) (=> (and (>= (+ (* (- 1) 1) (* 1 y1 ) (* (- 1) y2 ) ) 0) (>= (* 1 y1 ) 0) (>= (* 1 y2 ) 0) (>= (+ (* 1023 1) (* (- 1) y2 ) ) 0) (>= (+ (* 1023 1) (* (- 1) y1 ) ) 0) (>= (+ (* 1 s_10 y2 ) (* 1 s_11 y2 y2 ) (* 1 s_6 ) (* 1 s_7 y1 ) (* 1 s_8 y1 y2 ) (* 1 s_9 y1 y1 ) ) 0) ) (>= (+ (* 1 c_10 y2 ) (* 1 c_11 y2 y2 ) (* 1 c_6 ) (* 1 c_7 y1 ) (* (- 1) c_7 y2 ) (* 1 c_8 y1 y2 ) (* (- 1) c_8 y2 y2 ) (* (- 2) c_9 y1 y2 ) (* 1 c_9 y1 y1 ) (* 1 c_9 y2 y2 ) ) 0) )))
(assert (forall ((y1 Real) (y2 Real) ) (=> (and (>= (+ (* (- 1) 1) (* 1 y1 ) (* (- 1) y2 ) ) 0) (>= (* 1 y1 ) 0) (>= (* 1 y2 ) 0) (>= (+ (* 1023 1) (* (- 1) y2 ) ) 0) (>= (+ (* 1023 1) (* (- 1) y1 ) ) 0) (>= (+ (* 1 s_10 y2 ) (* 1 s_11 y2 y2 ) (* 1 s_6 ) (* 1 s_7 y1 ) (* 1 s_8 y1 y2 ) (* 1 s_9 y1 y1 ) ) 0) ) (>= (+ (* (- 1) 1) (* 1 c_7 y2 ) (* 1 c_8 y2 y2 ) (* 2 c_9 y1 y2 ) (* (- 1) c_9 y2 y2 ) ) 0) )))
(assert (forall ((y1 Real) (y2 Real) ) (=> (and (>= (+ (* (- 1) y1 ) (* 1 y2 ) ) 0) (>= (+ (* (- 1) 1) (* 1 y1 ) (* (- 1) y2 ) ) 0) (>= (* 1 y1 ) 0) (>= (* 1 y2 ) 0) (>= (+ (* 1023 1) (* (- 1) y2 ) ) 0) (>= (+ (* 1023 1) (* (- 1) y1 ) ) 0) (>= (+ (* 1 s_10 y2 ) (* 1 s_11 y2 y2 ) (* 1 s_6 ) (* 1 s_7 y1 ) (* 1 s_8 y1 y2 ) (* 1 s_9 y1 y1 ) ) 0) ) (>= (+ (* (- 1) s_10 y1 ) (* 1 s_10 y2 ) (* (- 2) s_11 y1 y2 ) (* 1 s_11 y1 y1 ) (* 1 s_11 y2 y2 ) (* 1 s_6 ) (* 1 s_7 y1 ) (* 1 s_8 y1 y2 ) (* (- 1) s_8 y1 y1 ) (* 1 s_9 y1 y1 ) ) 0) )))
(assert (forall ((y1 Real) (y2 Real) ) (=> (and (>= (+ (* (- 1) y1 ) (* 1 y2 ) ) 0) (>= (+ (* (- 1) 1) (* 1 y1 ) (* (- 1) y2 ) ) 0) (>= (* 1 y1 ) 0) (>= (* 1 y2 ) 0) (>= (+ (* 1023 1) (* (- 1) y2 ) ) 0) (>= (+ (* 1023 1) (* (- 1) y1 ) ) 0) (>= (+ (* 1 s_10 y2 ) (* 1 s_11 y2 y2 ) (* 1 s_6 ) (* 1 s_7 y1 ) (* 1 s_8 y1 y2 ) (* 1 s_9 y1 y1 ) ) 0) ) (>= (+ (* (- 1) c_10 y1 ) (* 1 c_10 y2 ) (* (- 2) c_11 y1 y2 ) (* 1 c_11 y1 y1 ) (* 1 c_11 y2 y2 ) (* 1 c_6 ) (* 1 c_7 y1 ) (* 1 c_8 y1 y2 ) (* (- 1) c_8 y1 y1 ) (* 1 c_9 y1 y1 ) ) 0) )))
(assert (forall ((y1 Real) (y2 Real) ) (=> (and (>= (+ (* (- 1) y1 ) (* 1 y2 ) ) 0) (>= (+ (* (- 1) 1) (* 1 y1 ) (* (- 1) y2 ) ) 0) (>= (* 1 y1 ) 0) (>= (* 1 y2 ) 0) (>= (+ (* 1023 1) (* (- 1) y2 ) ) 0) (>= (+ (* 1023 1) (* (- 1) y1 ) ) 0) (>= (+ (* 1 s_10 y2 ) (* 1 s_11 y2 y2 ) (* 1 s_6 ) (* 1 s_7 y1 ) (* 1 s_8 y1 y2 ) (* 1 s_9 y1 y1 ) ) 0) ) (>= (+ (* (- 1) 1) (* 1 c_10 y1 ) (* 2 c_11 y1 y2 ) (* (- 1) c_11 y1 y1 ) (* 1 c_8 y1 y1 ) ) 0) )))
(assert (forall ((y1 Real) (y2 Real) ) (=> (and (>= (+ (* 1 y1 ) (* (- 1) y2 ) ) 0) (>= (+ (* (- 1) y1 ) (* 1 y2 ) ) 0) (>= (* 1 y1 ) 0) (>= (* 1 y2 ) 0) (>= (+ (* 1023 1) (* (- 1) y2 ) ) 0) (>= (+ (* 1023 1) (* (- 1) y1 ) ) 0) (>= (+ (* 1 s_10 y2 ) (* 1 s_11 y2 y2 ) (* 1 s_6 ) (* 1 s_7 y1 ) (* 1 s_8 y1 y2 ) (* 1 s_9 y1 y1 ) ) 0) ) (>= (+ (* 1 s_12 ) (* 1 s_13 y1 ) (* 1 s_14 y1 y2 ) (* 1 s_15 y1 y1 ) (* 1 s_16 y2 ) (* 1 s_17 y2 y2 ) ) 0) )))
(assert (forall ((y1 Real) (y2 Real) ) (=> (and (>= (+ (* 1 y1 ) (* (- 1) y2 ) ) 0) (>= (+ (* (- 1) y1 ) (* 1 y2 ) ) 0) (>= (* 1 y1 ) 0) (>= (* 1 y2 ) 0) (>= (+ (* 1023 1) (* (- 1) y2 ) ) 0) (>= (+ (* 1023 1) (* (- 1) y1 ) ) 0) (>= (+ (* 1 s_10 y2 ) (* 1 s_11 y2 y2 ) (* 1 s_6 ) (* 1 s_7 y1 ) (* 1 s_8 y1 y2 ) (* 1 s_9 y1 y1 ) ) 0) ) (>= (+ (* 1 c_12 ) (* 1 c_13 y1 ) (* 1 c_14 y1 y2 ) (* 1 c_15 y1 y1 ) (* 1 c_16 y2 ) (* 1 c_17 y2 y2 ) ) 0) )))

(check-sat)
(get-model)
